NAME : instances/clustered-mixed-tsp/instance-12.tsp
COMMENT : No Comment
TYPE : TSP
DIMENSION: 52
EDGE_WEIGHT_TYPE : EUC_2D
NODE_COORD_SECTION
1 1128 569 
2 400 400 
3 -146 517 
4 621 387 
5 1115 335 
6 244 244 
7 10 569 
8 218 322 
9 530 231 
10 582 -29 
11 1219 725 
12 -3 439 
13 114 998 
14 153 283 
15 725 504 
16 725 179 
17 660 621 
18 881 114 
19 231 257 
20 868 517 
21 582 257 
22 -237 881 
23 205 517 
24 621 -16 
25 361 439 
26 569 608 
27 868 -29 
28 400 153 
29 647 491 
30 530 309 
31 530 660 
32 998 -16 
33 296 -16 
34 231 686 
35 205 439 
36 114 153 
37 907 -3 
38 153 634 
39 712 -3 
40 -29 179 
41 725 400 
42 127 660 
43 803 634 
44 621 75 
45 972 660 
46 1128 374 
47 777 23 
48 842 504 
49 1271 309 
50 1076 -68 
51 -55 36 
52 -146 322 
EOF
